17	4
28	18	11	13	
0	0	0	0	0	3	2	3	4	
8	0	6	0	0	3	5	9	10	
6	1	0	0	0	1	6	
6	0	0	0	7	1	15	
2	0	9	0	0	2	12	17	
75	0	0	0	6	2	7	9	
150	1	0	0	0	2	8	13	
250	1	0	0	0	2	14	17	
50	0	0	0	5	2	17	17	
75	10	0	0	0	2	11	16	
150	0	0	7	0	2	14	17	
25	10	0	0	0	1	17	
7	0	0	3	0	1	17	
1	0	5	0	0	2	17	17	
8	7	0	0	0	1	17	
9	0	0	1	0	3	17	17	17	
0	0	0	0	0	0	
